
Gurobi 11.0.1 (win64) logging started Mon May 13 14:45:35 2024

Set parameter LogFile to value "output/solver_log6.txt"
Gurobi Optimizer version 11.0.1 build v11.0.1rc0 (win64 - Windows 11.0 (22631.2))

CPU model: 11th Gen Intel(R) Core(TM) i7-1165G7 @ 2.80GHz, instruction set [SSE2|AVX|AVX2|AVX512]
Thread count: 4 physical cores, 8 logical processors, using up to 8 threads

Optimize a model with 1278 rows, 421 columns and 23532 nonzeros
Model fingerprint: 0x52d7e1e6
Variable types: 88 continuous, 333 integer (333 binary)
Coefficient statistics:
  Matrix range     [4e-01, 1e+05]
  Objective range  [1e+00, 1e+02]
  Bounds range     [1e+00, 1e+00]
  RHS range        [1e-02, 1e+05]

User MIP start produced solution with objective 54720.8 (0.00s)
User MIP start produced solution with objective 54720.8 (0.00s)
Loaded user MIP start with objective 54720.8

Presolve removed 179 rows and 183 columns
Presolve time: 0.03s
Presolved: 1099 rows, 238 columns, 22019 nonzeros
Variable types: 81 continuous, 157 integer (155 binary)

Root relaxation: objective 5.568883e+04, 267 iterations, 0.01 seconds (0.02 work units)

    Nodes    |    Current Node    |     Objective Bounds      |     Work
 Expl Unexpl |  Obj  Depth IntInf | Incumbent    BestBd   Gap | It/Node Time

*    0     0               0    55688.826042 55688.8260  0.00%     -    0s

Explored 1 nodes (1067 simplex iterations) in 0.13 seconds (0.21 work units)
Thread count was 8 (of 8 available processors)

Solution count 3: 55688.8 55688.8 54720.8 

Optimal solution found (tolerance 1.00e-04)
Best objective 5.568882604180e+04, best bound 5.568882604180e+04, gap 0.0000%
